bacp/03/params/inst-227-1-320362453.param
language Essence 1.3
$ generated by bacp-gen.pl with seed 320362453
$ edge probability 0.0595
$ course loads in range 2..8
letting n_courses be 158
letting n_periods be 29
letting load_per_period_lb be 6
letting load_per_period_ub be 49
letting courses_per_period_lb be 5
letting courses_per_period_ub be 10
letting course_load be function(
1 --> 7,
2 --> 3,
3 --> 5,
4 --> 2,
5 --> 5,
6 --> 8,
7 --> 6,
8 --> 5,
9 --> 8,
10 --> 5,
11 --> 8,
12 --> 2,
13 --> 2,
14 --> 5,
15 --> 5,
16 --> 6,
17 --> 7,
18 --> 7,
19 --> 4,
20 --> 4,
21 --> 6,
22 --> 5,
23 --> 8,
24 --> 7,
25 --> 6,
26 --> 4,
27 --> 5,
28 --> 5,
29 --> 5,
30 --> 4,
31 --> 4,
32 --> 6,
33 --> 7,
34 --> 7,
35 --> 5,
36 --> 5,
37 --> 5,
38 --> 2,
39 --> 3,
40 --> 8,
41 --> 3,
42 --> 3,
43 --> 6,
44 --> 6,
45 --> 8,
46 --> 6,
47 --> 7,
48 --> 6,
49 --> 5,
50 --> 4,
51 --> 2,
52 --> 2,
53 --> 5,
54 --> 7,
55 --> 6,
56 --> 7,
57 --> 7,
58 --> 2,
59 --> 4,
60 --> 6,
61 --> 5,
62 --> 6,
63 --> 6,
64 --> 7,
65 --> 8,
66 --> 8,
67 --> 6,
68 --> 7,
69 --> 5,
70 --> 7,
71 --> 4,
72 --> 2,
73 --> 2,
74 --> 2,
75 --> 6,
76 --> 4,
77 --> 8,
78 --> 8,
79 --> 4,
80 --> 5,
81 --> 8,
82 --> 4,
83 --> 8,
84 --> 2,
85 --> 7,
86 --> 3,
87 --> 2,
88 --> 8,
89 --> 5,
90 --> 7,
91 --> 2,
92 --> 5,
93 --> 7,
94 --> 8,
95 --> 2,
96 --> 2,
97 --> 7,
98 --> 5,
99 --> 3,
100 --> 2,
101 --> 3,
102 --> 5,
103 --> 6,
104 --> 2,
105 --> 7,
106 --> 3,
107 --> 5,
108 --> 7,
109 --> 2,
110 --> 8,
111 --> 3,
112 --> 6,
113 --> 6,
114 --> 4,
115 --> 6,
116 --> 6,
117 --> 3,
118 --> 5,
119 --> 3,
120 --> 3,
121 --> 5,
122 --> 6,
123 --> 2,
124 --> 2,
125 --> 5,
126 --> 6,
127 --> 6,
128 --> 7,
129 --> 6,
130 --> 3,
131 --> 6,
132 --> 6,
133 --> 3,
134 --> 8,
135 --> 6,
136 --> 3,
137 --> 4,
138 --> 6,
139 --> 7,
140 --> 4,
141 --> 3,
142 --> 4,
143 --> 7,
144 --> 7,
145 --> 7,
146 --> 3,
147 --> 3,
148 --> 6,
149 --> 7,
150 --> 6,
151 --> 6,
152 --> 8,
153 --> 2,
154 --> 2,
155 --> 7,
156 --> 6,
157 --> 4,
158 --> 5
)
letting prerequisite be relation (
(49,54),
(26,55),
(44,56),
(11,57),
(53,58),
(52,59),
(1,60),
(7,61),
(17,62),
(45,63),
(13,64),
(34,65),
(49,66),
(14,67),
(43,68),
(18,69),
(19,70),
(34,71),
(44,72),
(15,73),
(48,74),
(24,75),
(15,76),
(26,77),
(3,78),
(24,79),
(14,80),
(38,81),
(44,82),
(32,83),
(15,84),
(45,85),
(12,86),
(45,87),
(7,88),
(3,89),
(3,90),
(38,91),
(32,92),
(13,93),
(36,94),
(40,95),
(35,96),
(7,97),
(41,98),
(4,99),
(8,100),
(7,101),
(44,102),
(27,103),
(33,104),
(28,105),
(41,106),
(11,107),
(1,108),
(39,109),
(39,110),
(24,111),
(10,112),
(13,113),
(1,114),
(23,115),
(37,116),
(6,117),
(7,118),
(35,119),
(47,120),
(42,121),
(36,122),
(24,123),
(52,124),
(50,125),
(2,126),
(46,127),
(26,128),
(44,129),
(17,130),
(89,131),
(93,132),
(115,133),
(56,134),
(114,135),
(95,136),
(130,137),
(62,138),
(123,139),
(59,140),
(103,141),
(76,142),
(112,143),
(79,144),
(128,145),
(107,146),
(87,147),
(92,148),
(88,149),
(84,150),
(110,151),
(58,152),
(85,153),
(79,154),
(85,155),
(60,156),
(55,157),
(123,158),
(87,135),
(127,157),
(44,106),
(18,127),
(111,156),
(40,114),
(114,133),
(37,69),
(90,142),
(107,136),
(62,148),
(4,98),
(96,144),
(26,105),
(24,72),
(95,147),
(25,98),
(42,105),
(53,55),
(2,61),
(109,132),
(14,93),
(86,137),
(105,134),
(5,56),
(119,150),
(47,56),
(128,147),
(22,62),
(47,78),
(107,151),
(9,107),
(9,69),
(92,137),
(84,147),
(24,58),
(103,153),
(1,95),
(119,156),
(63,143),
(93,148),
(30,54),
(88,148),
(44,68),
(72,140),
(129,152),
(14,58),
(91,150),
(34,55),
(75,136),
(118,145),
(119,144),
(77,131),
(113,134),
(51,77),
(18,59),
(35,57),
(74,156),
(26,109),
(114,155),
(113,141),
(46,109),
(52,103),
(77,147),
(96,154),
(28,66),
(33,123),
(45,108),
(121,153),
(37,56),
(31,85),
(60,140),
(69,149),
(44,104),
(99,148),
(55,151),
(21,65),
(7,85),
(74,139),
(87,145),
(130,143),
(47,114),
(34,115),
(1,88),
(105,147),
(80,141),
(30,78),
(68,134),
(24,117),
(110,134),
(39,54),
(17,96),
(108,146),
(44,73),
(14,120),
(5,55),
(13,123),
(14,95),
(30,82),
(1,76),
(56,138),
(30,73),
(9,97),
(12,129),
(71,132),
(66,143),
(53,79),
(41,92),
(93,131),
(81,156),
(20,69),
(129,132),
(32,103),
(76,154),
(29,80),
(123,143),
(17,100),
(115,158),
(110,137),
(104,147),
(52,109),
(49,101),
(57,134),
(112,154),
(123,140),
(49,72),
(52,58),
(10,76),
(113,132),
(129,138),
(7,67),
(83,133),
(99,141),
(118,141),
(121,133),
(25,55),
(40,58),
(29,90),
(45,116),
(13,98),
(116,143),
(14,77),
(119,147),
(27,128),
(35,63),
(88,144),
(35,122),
(37,75),
(86,134),
(43,93),
(64,131),
(26,98),
(2,111),
(101,144),
(23,127),
(1,62),
(95,144),
(35,128),
(97,145),
(72,145),
(9,88),
(23,99),
(7,128),
(78,144),
(23,110),
(50,94),
(38,55),
(32,79),
(115,132),
(44,59),
(59,137),
(26,84),
(84,139),
(43,107),
(79,152),
(33,63),
(53,117),
(96,147),
(52,67),
(3,80),
(24,91),
(120,148),
(62,151),
(125,146),
(49,118),
(54,144),
(113,150),
(18,54),
(83,156),
(68,148),
(106,148),
(38,58),
(34,104),
(19,97),
(71,154),
(81,141),
(29,124),
(28,120),
(41,58),
(5,129),
(29,102),
(26,94),
(130,157),
(66,136),
(110,144),
(88,154),
(7,105),
(78,141),
(11,71),
(1,96),
(31,82),
(6,78),
(121,136),
(114,142),
(96,142),
(6,112),
(89,132),
(19,102),
(112,157),
(37,102),
(12,75),
(83,132),
(15,123),
(40,76),
(42,68),
(48,80),
(49,116),
(99,149),
(37,101),
(43,74),
(83,140),
(35,64),
(113,153),
(15,77),
(82,146),
(28,92),
(105,144),
(51,83),
(94,140),
(80,135),
(92,134),
(88,131),
(115,139),
(83,142),
(100,143),
(38,105),
(46,118),
(45,80),
(80,145),
(24,65),
(89,157),
(110,148),
(99,143),
(32,116),
(53,127),
(45,119),
(21,102),
(122,133),
(14,101),
(31,109),
(10,96),
(109,155),
(102,148),
(95,132),
(90,155),
(78,131)
)

