bacp/param_dec/inst-227-1-320362453.eprime-param
language ESSENCE' 1.0

letting n_courses be 158
letting n_periods be 29
letting prerequisite_RelationAsSet_Explicit_1 be
        [1, 1, 1, 1, 1, 1, 1, 1, 2, 2, 2, 3, 3, 3, 3, 4, 4, 5, 5, 5, 6, 6, 6, 7, 7, 7, 7, 7, 7, 7, 7, 7, 8, 9, 9, 9, 9,
         10, 10, 10, 11, 11, 11, 12, 12, 12, 13, 13, 13, 13, 13, 14, 14, 14, 14, 14, 14, 14, 14, 15, 15, 15, 15, 15, 17,
         17, 17, 17, 18, 18, 18, 18, 19, 19, 19, 20, 21, 21, 22, 23, 23, 23, 23, 24, 24, 24, 24, 24, 24, 24, 24, 24, 25,
         25, 26, 26, 26, 26, 26, 26, 26, 26, 27, 27, 28, 28, 28, 28, 29, 29, 29, 29, 30, 30, 30, 30, 31, 31, 31, 32, 32,
         32, 32, 32, 33, 33, 33, 34, 34, 34, 34, 34, 35, 35, 35, 35, 35, 35, 35, 36, 36, 37, 37, 37, 37, 37, 37, 38, 38,
         38, 38, 38, 39, 39, 39, 40, 40, 40, 40, 41, 41, 41, 41, 42, 42, 42, 43, 43, 43, 43, 44, 44, 44, 44, 44, 44, 44,
         44, 44, 44, 45, 45, 45, 45, 45, 45, 45, 46, 46, 46, 47, 47, 47, 47, 48, 48, 49, 49, 49, 49, 49, 49, 50, 50, 51,
         51, 52, 52, 52, 52, 52, 52, 53, 53, 53, 53, 53, 54, 55, 55, 56, 56, 57, 58, 59, 59, 60, 60, 62, 62, 62, 63, 64,
         66, 66, 68, 68, 69, 71, 71, 72, 72, 74, 74, 75, 76, 76, 77, 77, 78, 78, 78, 79, 79, 79, 80, 80, 80, 81, 81, 82,
         83, 83, 83, 83, 83, 84, 84, 84, 85, 85, 86, 86, 87, 87, 87, 88, 88, 88, 88, 88, 89, 89, 89, 90, 90, 91, 92, 92,
         92, 93, 93, 93, 94, 95, 95, 95, 95, 96, 96, 96, 96, 97, 99, 99, 99, 99, 100, 101, 102, 103, 103, 104, 105, 105,
         105, 106, 107, 107, 107, 108, 109, 109, 110, 110, 110, 110, 110, 111, 112, 112, 112, 113, 113, 113, 113, 113,
         114, 114, 114, 114, 115, 115, 115, 115, 116, 118, 118, 119, 119, 119, 119, 120, 121, 121, 121, 122, 123, 123,
         123, 123, 125, 127, 128, 128, 129, 129, 129, 130, 130, 130;
             int(1..371)]
letting prerequisite_RelationAsSet_Explicit_2 be
        [60, 62, 76, 88, 95, 96, 108, 114, 61, 111, 126, 78, 80, 89, 90, 98, 99, 55, 56, 129, 78, 112, 117, 61, 67, 85,
         88, 97, 101, 105, 118, 128, 100, 69, 88, 97, 107, 76, 96, 112, 57, 71, 107, 75, 86, 129, 64, 93, 98, 113, 123,
         58, 67, 77, 80, 93, 95, 101, 120, 73, 76, 77, 84, 123, 62, 96, 100, 130, 54, 59, 69, 127, 70, 97, 102, 69, 65,
         102, 62, 99, 110, 115, 127, 58, 65, 72, 75, 79, 91, 111, 117, 123, 55, 98, 55, 77, 84, 94, 98, 105, 109, 128,
         103, 128, 66, 92, 105, 120, 80, 90, 102, 124, 54, 73, 78, 82, 82, 85, 109, 79, 83, 92, 103, 116, 63, 104, 123,
         55, 65, 71, 104, 115, 57, 63, 64, 96, 119, 122, 128, 94, 122, 56, 69, 75, 101, 102, 116, 55, 58, 81, 91, 105,
         54, 109, 110, 58, 76, 95, 114, 58, 92, 98, 106, 68, 105, 121, 68, 74, 93, 107, 56, 59, 68, 72, 73, 82, 102,
         104, 106, 129, 63, 80, 85, 87, 108, 116, 119, 109, 118, 127, 56, 78, 114, 120, 74, 80, 54, 66, 72, 101, 116,
         118, 94, 125, 77, 83, 58, 59, 67, 103, 109, 124, 55, 58, 79, 117, 127, 144, 151, 157, 134, 138, 134, 152, 137,
         140, 140, 156, 138, 148, 151, 143, 131, 136, 143, 134, 148, 149, 132, 154, 140, 145, 139, 156, 136, 142, 154,
         131, 147, 131, 141, 144, 144, 152, 154, 135, 141, 145, 141, 156, 146, 132, 133, 140, 142, 156, 139, 147, 150,
         153, 155, 134, 137, 135, 145, 147, 131, 144, 148, 149, 154, 131, 132, 157, 142, 155, 150, 134, 137, 148, 131,
         132, 148, 140, 132, 136, 144, 147, 142, 144, 147, 154, 145, 141, 143, 148, 149, 143, 144, 148, 141, 153, 147,
         134, 144, 147, 148, 136, 146, 151, 146, 132, 155, 134, 137, 144, 148, 151, 156, 143, 154, 157, 132, 134, 141,
         150, 153, 133, 135, 142, 155, 132, 133, 139, 158, 143, 141, 145, 144, 147, 150, 156, 148, 133, 136, 153, 133,
         139, 140, 143, 158, 146, 157, 145, 147, 132, 138, 152, 137, 143, 157;
             int(1..371)]
letting course_load_Function1D be
        [7, 3, 5, 2, 5, 8, 6, 5, 8, 5, 8, 2, 2, 5, 5, 6, 7, 7, 4, 4, 6, 5, 8, 7, 6, 4, 5, 5, 5, 4, 4, 6, 7, 7, 5, 5, 5,
         2, 3, 8, 3, 3, 6, 6, 8, 6, 7, 6, 5, 4, 2, 2, 5, 7, 6, 7, 7, 2, 4, 6, 5, 6, 6, 7, 8, 8, 6, 7, 5, 7, 4, 2, 2, 2,
         6, 4, 8, 8, 4, 5, 8, 4, 8, 2, 7, 3, 2, 8, 5, 7, 2, 5, 7, 8, 2, 2, 7, 5, 3, 2, 3, 5, 6, 2, 7, 3, 5, 7, 2, 8, 3,
         6, 6, 4, 6, 6, 3, 5, 3, 3, 5, 6, 2, 2, 5, 6, 6, 7, 6, 3, 6, 6, 3, 8, 6, 3, 4, 6, 7, 4, 3, 4, 7, 7, 7, 3, 3, 6,
         7, 6, 6, 8, 2, 2, 7, 6, 4, 5;
             int(1..158)]
letting load_per_period_ub be 49
letting load_per_period_lb be 6
letting courses_per_period_ub be 10
letting courses_per_period_lb be 5
letting fin1 be 371
letting fin2 be 158
letting fin3 be 8
